746,-8
548,338
709,415
769,420
1108,623
1214,490
709,415
651,406
390,195
681,196
1023,295
1095,341
672,465
533,554
269,705
361,569
533,554
601,446
584,336
681,136
963,18
681,106
771,406
1006,355
1023,295
850,283
787,352
681,196
